50, 13456
374, 959
583, 141
298, 24
596, 999
544, 185
434, 121
674, 652
529, 346
89, 890
997, 232
356, 960
432, 320
403, 602
930, 933
953, 686
512, 924
401, 709
97, 49
896, 882
172, 590
547, 311
350, 191
329, 850
358, 583
192, 938
37, 774
536, 962
796, 567
648, 699
202, 613
694, 259
53, 957
411, 313
829, 782
922, 955
461, 651
847, 143
499, 826
524, 668
585, 186
992, 50
744, 532
474, 33
728, 926
644, 507
354, 518
785, 410
820, 661
609, 917
943, 308
